NAME : swiss42-C-3-0-c.1467.tour
COMMENT : Length = 1467
COMMENT : Found by LKH-3 [Keld Helsgaun] Tue Jul 30 13:14:05 2024
TYPE : TOUR
DIMENSION : 42
TOUR_SECTION
1
5
7
2
8
18
37
38
16
17
15
20
14
6
27
19
13
12
26
11
42
24
41
25
22
40
10
9
30
31
23
39
35
34
21
36
32
33
29
3
28
4
-1
EOF
